
Gurobi 9.5.1 (linux64) logging started Mon 15 Aug 2022 12:30:49 PM MST

Set parameter LogFile to value "/home/local/ASUAD/kmajd1/NNRepLayer_v2/demos/walking_example/dynamic_constraint/repair_net/logs/opt_log_8_15_2022_12_10_19.log"
Gurobi Optimizer version 9.5.1 build v9.5.1rc2 (linux64)
Thread count: 48 physical cores, 96 logical processors, using up to 48 threads
Optimize a model with 391411 rows, 304465 columns and 6109683 nonzeros
Model fingerprint: 0xc30b2a62
Model has 337 quadratic objective terms
Variable types: 218193 continuous, 86272 integer (86272 binary)
Coefficient statistics:
  Matrix range     [3e-05, 3e+02]
  Objective range  [2e-03, 1e+01]
  QObjective range [6e-01, 6e-01]
  Bounds range     [3e-04, 1e+03]
  RHS range        [1e-06, 3e+02]

Concurrent MIP optimizer: 3 concurrent instances (16 threads per instance)

Presolve removed 674 rows and 0 columns (presolve time = 5s) ...
Presolve removed 8098 rows and 14848 columns (presolve time = 10s) ...
Presolve removed 8098 rows and 14848 columns (presolve time = 15s) ...
Presolve removed 15522 rows and 14848 columns (presolve time = 20s) ...
Presolve removed 15522 rows and 14848 columns (presolve time = 25s) ...
Presolve removed 15522 rows and 14848 columns
Presolve time: 26.03s
Presolved: 375889 rows, 289617 columns, 6079318 nonzeros
Presolved model has 337 quadratic objective terms
Variable types: 203345 continuous, 86272 integer (86272 binary)
Root relaxation presolve removed 86272 rows and 86272 columns (presolve time = 5s) ...
Root relaxation presolve removed 86272 rows and 86272 columns (presolve time = 10s) ...
Root relaxation presolve removed 86272 rows and 86272 columns (presolve time = 15s) ...
Root relaxation presolve removed 86272 rows and 86272 columns (presolve time = 20s) ...
Root relaxation presolve removed 86272 rows and 86272 columns (presolve time = 25s) ...
Root relaxation presolve removed 86272 rows and 86272 columns (presolve time = 30s) ...
Root relaxation presolve removed 86272 rows and 86272 columns (presolve time = 35s) ...
Root relaxation presolve removed 86272 rows and 86272 columns (presolve time = 40s) ...
Root relaxation presolve removed 86272 rows and 86272 columns (presolve time = 45s) ...
Root relaxation presolve removed 86272 rows and 86272 columns
Root relaxation presolved: 289617 rows, 203345 columns, 5820502 nonzeros
Root relaxation presolved model has 337 quadratic objective terms


Root simplex log...

Iteration    Objective       Primal Inf.    Dual Inf.      Time
       0    1.7781832e+02   0.000000e+00   0.000000e+00     79s
    8766    1.7781832e+02   2.724337e+04   0.000000e+00     80s
   55651    1.7781832e+02   1.511508e+04   0.000000e+00     85s
  113677    1.7781832e+02   4.470094e+03   0.000000e+00     90s
  137793    1.7781832e+02   0.000000e+00   0.000000e+00     93s
  137793    1.7781832e+02   0.000000e+00   0.000000e+00     94s

Root relaxation: objective 1.778183e+02, 137793 iterations, 65.02 seconds (89.81 work units)

    Nodes    |    Current Node    |     Objective Bounds      |     Work
 Expl Unexpl |  Obj  Depth IntInf | Incumbent    BestBd   Gap | It/Node Time

     0     0      -    -    -              -  177.81832      -     -   99s
     0     0      -    -    -              -  177.81832      -     -  307s
     0     2      -    -    -              -  177.81832      -     -  748s
     1     4      -    -    -              -  177.81832      -     -  844s
     3     8      -    -    -              -  177.81832      -     - 1062s
     7    16      -    -    -              -  177.81832      -     - 1086s
    15    32      -    -    -              -  177.81832      -     - 2009s
    31    48      -    -    -              -  177.81832      -     - 2036s
    47    64      -    -    -              -  177.81832      -     - 2082s
    63    80      -    -    -              -  177.81832      -     - 2085s
   159   192      -    -    -              -  177.81832      -     - 2093s
   191   223      -    -    -              -  177.81832      -     - 2106s
   222   254      -    -    -              -  177.81832      -     - 2110s
   253   284      -    -    -              -  177.81832      -     - 2125s
   283   315      -    -    -              -  177.81832      -     - 2133s
   314   344      -    -    -              -  177.81832      -     - 2182s
   343   381      -    -    -              -  177.81832      -     - 2249s
   380   425      -    -    -              -  177.81832      -     - 2272s
   424   474      -    -    -              -  177.81832      -     - 2370s
   473   529      -    -    -              -  177.81832      -     - 2375s
   558   589      -    -    -              -  177.81832      -     - 2380s
   660   732      -    -    -              -  177.81832      -     - 2390s
   731   795      -    -    -              -  177.81832      -     - 2396s
   794   864      -    -    -              -  177.81832      -     - 2400s
   863   935      -    -    -              -  177.81832      -     - 2406s
   934  1007      -    -    -              -  177.81832      -     - 2424s
  1006  1076      -    -    -              -  177.81832      -     - 2440s
  1075  1155      -    -    -              -  177.81832      -     - 2447s
  1154  1234      -    -    -              -  177.81832      -     - 2458s
  1233  1324      -    -    -              -  177.81832      -     - 2476s
  1323  1409      -    -    -              -  177.81832      -     - 2499s
  1408  1520      -    -    -              -  177.81832      -     - 2505s
  1519  1619      -    -    -              -  177.81832      -     - 2511s
  1618  1730      -    -    -              -  177.81832      -     - 2523s
  1729  1852      -    -    -              -  177.81832      -     - 2532s
  1851  1967      -    -    -              -  177.81832      -     - 2539s
  1966  2095      -    -    -              -  177.81832      -     - 2546s
  2094  2231      -    -    -              -  177.81832      -     - 2554s
  2230  2364      -    -    -              -  177.81832      -     - 2561s
  2363  2505      -    -    -              -  177.81832      -     - 2570s
  2504  2647      -    -    -              -  177.81832      -     - 2578s
  2646  2792      -    -    -              -  177.81832      -     - 2587s
  2791  2962      -    -    -              -  177.81832      -     - 2598s
  2961  3121      -    -    -              -  177.81832      -     - 2608s
  3120  3292      -    -    -              -  177.81832      -     - 2617s
  3291  3478      -    -    -              -  177.81832      -     - 2629s
  3477  3662      -    -    -              -  177.81832      -     - 2641s
  3661  3857      -    -    -              -  177.81832      -     - 2660s
  3856  4058      -    -    -              -  177.81832      -     - 2670s
  4057  4282      -    -    -              -  177.81832      -     - 2681s
  4281  4517      -    -    -              -  177.81832      -     - 2693s
  4516  4733      -    -    -              -  177.81832      -     - 2705s
  4732  4924      -    -    -              -  177.81832      -     - 2730s
  4923  5132      -    -    -              -  177.81832      -     - 2743s
  5131  5352      -    -    -              -  177.81832      -     - 2770s
  5351  5549      -    -    -              -  177.81832      -     - 2889s
  5548  5805      -    -    -              -  177.81832      -     - 2909s
  5804  6079      -    -    -              -  177.81832      -     - 2934s
  6078  6342      -    -    -              -  177.81832      -     - 2964s
  6341  6669      -    -    -              -  177.81832      -     - 2993s
  6668  6953      -    -    -              -  177.81832      -     - 3030s
  6952  7302      -    -    -              -  177.81832      -     - 3049s
  7301  7666      -    -    -              -  177.81832      -     - 3071s
  7665  7828      -    -    -              -  177.81832      -     - 3099s
  7827  8182      -    -    -              -  177.81832      -     - 3120s
  8181  8573      -    -    -              -  177.81832      -     - 3145s
  8572  8972      -    -    -              -  177.81832      -     - 3177s
  8973  9357      -    -    -              -  177.81832      -     - 3208s
  9358  9817      -    -    -              -  177.81832      -     - 3241s
  9820 10289      -    -    -              -  177.81832      -     - 3268s
 10293 10290      -    -    -              -  177.81832      -     - 3322s
 10295 10291      -    -    -              -  177.81832      -     - 3602s
 10297 10293      -    -    -              -  177.81832      -     - 4064s
 10298  9781      -    -    -     23985.0420  177.81832  99.3%     - 4237s
 10300  8831      -    -    -     8185.99309  177.81832  97.8%     - 4900s
 10304  7977      -    -    -     5421.69763  177.81832  96.7%     - 4918s
 10312  7991      -    -    -     5421.69763  177.81832  96.7%     - 5481s
 10328  8001      -    -    -     5421.69763  177.81832  96.7%     - 5491s
 10344  8012      -    -    -     5421.69763  177.81832  96.7%     - 5601s
 10360  8023      -    -    -     5421.69763  177.81832  96.7%     - 5614s
 10367  8020      -    -    -     5421.69763  177.81832  96.7%     - 5615s
 10376  8033      -    -    -     5421.69763  177.81832  96.7%     - 5622s
 10392  7646      -    -    -     4630.52321  177.81832  96.2%     - 5922s
 10408  6935      -    -    -     4579.81473  177.81832  96.1%     - 5931s
 10440  6953      -    -    -     4579.81473  177.81832  96.1%     - 5937s
 10469  6986      -    -    -     4579.81473  177.81832  96.1%     - 5950s
 10512  7018      -    -    -     4579.81473  177.81832  96.1%     - 5958s
 10558  7049      -    -    -     4579.81473  177.81832  96.1%     - 5967s
 10604  7083      -    -    -     4579.81473  177.81832  96.1%     - 5973s
 10654  7116      -    -    -     4579.81473  177.81832  96.1%     - 6014s
 10703  7156      -    -    -     4579.81473  177.81832  96.1%     - 6019s
 10760  7192      -    -    -     4579.81473  177.81832  96.1%     - 6026s
 10815  7236      -    -    -     4579.81473  177.81832  96.1%     - 6048s
 10877  7274      -    -    -     4579.81473  177.81832  96.1%     - 6054s
 10936  7314      -    -    -     4579.81473  177.81832  96.1%     - 6063s
 10995  7353      -    -    -     4579.81473  177.81832  96.1%     - 6073s
 11054  7400      -    -    -     4579.81473  177.81832  96.1%     - 6079s
 11121  7447      -    -    -     4579.81473  177.81832  96.1%     - 6100s
 11190  7499      -    -    -     4579.81473  177.81832  96.1%     - 6115s
 11265  7553      -    -    -     4579.81473  177.81832  96.1%     - 6170s
 11344  7612      -    -    -     4579.81473  177.81832  96.1%     - 6183s
 11429  7296      -    -    -      643.01991  177.81832  72.3%     - 6247s
 11484  7034      -    -    -      643.01991  177.81832  72.3%     - 6263s
 11564  7109      -    -    -      643.01991  177.81832  72.3%     - 6284s
 11666  7199      -    -    -      643.01991  177.81832  72.3%     - 6294s
 11790  7284      -    -    -      643.01991  177.81832  72.3%     - 6308s
 11916  7365      -    -    -      643.01991  177.81832  72.3%     - 6331s
 12039  7475      -    -    -      643.01991  177.81832  72.3%     - 6340s
 12190  7577      -    -    -      643.01991  177.81832  72.3%     - 6356s
 12342  7682      -    -    -      643.01991  177.81832  72.3%     - 6369s
 12498  7789      -    -    -      643.01991  177.81832  72.3%     - 6383s
 12657  7905      -    -    -      643.01991  177.81832  72.3%     - 6393s
 12826  8013      -    -    -      643.01991  177.81832  72.3%     - 6406s
 12990  8115      -    -    -      643.01991  177.81832  72.3%     - 6419s
 13147  8244      -    -    -      643.01991  177.81832  72.3%     - 6436s
 13328  8381      -    -    -      643.01991  177.81832  72.3%     - 6467s
 13528  8507      -    -    -      643.01991  177.81832  72.3%     - 6478s
 13720  8670      -    -    -      643.01991  177.81832  72.3%     - 6491s
 13947  8769      -    -    -      643.01991  177.81832  72.3%     - 6515s
 14122  8929      -    -    -      643.01991  177.81832  72.3%     - 6598s
 14340  9071      -    -    -      643.01991  177.81832  72.3%     - 6613s
 14555  9178      -    -    -      643.01991  177.81832  72.3%     - 6631s
 14734  9213      -    -    -      643.01991  177.81832  72.3%     - 7128s
 14828  8752      -    -    -      638.16581  177.81832  72.1%     - 7153s
 15000  8935      -    -    -      638.16581  177.81832  72.1%     - 7205s
 15240  9127      -    -    -      638.16581  177.81832  72.1%     - 7230s
 15512  9052      -    -    -      519.65109  177.81832  65.8%     - 8758s
 15528  9318      -    -    -      519.65109  177.81832  65.8%     - 8789s
 15801  9492      -    -    -      519.65109  177.81832  65.8%     - 8847s
 16066  9768      -    -    -      519.65109  177.81832  65.8%     - 8887s
 16430 10012      -    -    -      519.65109  177.81832  65.8%     - 8922s
 16796 10272      -    -    -      519.65109  177.81832  65.8%     - 8963s
 17178 10546      -    -    -      519.65109  177.81832  65.8%     - 9003s
 17579 10811      -    -    -      519.65109  177.81832  65.8%     - 9049s
 17978 11109      -    -    -      519.65109  177.81832  65.8%     - 9085s
 18411 11382      -    -    -      519.65109  177.81832  65.8%     - 9128s
 18830 11696      -    -    -      519.65109  177.81832  65.8%     - 9167s
 19286 11936      -    -    -      519.65109  177.81832  65.8%     - 9214s
 19682 12212      -    -    -      519.65109  177.81832  65.8%     - 9287s
 20092 12602      -    -    -      519.65109  177.81832  65.8%     - 9343s
 20620 12954      -    -    -      519.65109  177.81832  65.8%     - 10878s
 21148 13528      -    -    -      519.65109  177.81832  65.8%     - 11510s
 21900 14029      -    -    -      519.65109  177.81832  65.8%     - 11585s
 22652 14528      -    -    -      519.65109  177.81832  65.8%     - 11656s
 23404 15024      -    -    -      519.65109  177.81832  65.8%     - 11743s
 24156 15521      -    -    -      519.65109  177.81832  65.8%     - 11820s
 24908 16001      -    -    -      519.65109  177.81832  65.8%     - 11974s
 25639 16505      -    -    -      519.65109  177.81832  65.8%     - 12048s
 26388 16999      -    -    -      519.65109  177.81832  65.8%     - 12154s
 27140 17545      -    -    -      519.65109  177.81832  65.8%     - 12263s
 27887 18263      -    -    -      519.65109  177.81832  65.8%     - 12326s
 28617 18279      -    -    -      519.65109  177.81832  65.8%     - 12993s
 28633 19027      -    -    -      519.65109  177.81832  65.8%     - 13070s
 29385 19755      -    -    -      519.65109  177.81832  65.8%     - 13164s
 30121 20493      -    -    -      519.65109  177.81832  65.8%     - 13227s
 30869 21211      -    -    -      519.65109  177.81832  65.8%     - 13329s
 31591 21928      -    -    -      519.65109  177.81832  65.8%     - 13414s
 32314 22643      -    -    -      519.65109  177.81832  65.8%     - 13499s
 33033 23288      -    -    -      519.65109  177.81832  65.8%     - 13817s
 33686 24006      -    -    -      519.65109  177.81832  65.8%     - 13889s
 34410 24703      -    -    -      519.65109  177.81832  65.8%     - 13957s
 35113 25404      -    -    -      519.65109  177.81832  65.8%     - 14032s
 35816 26050      -    -    -      519.65109  177.81832  65.8%     - 14116s
 36500 26729      -    -    -      519.65109  177.81832  65.8%     - 14193s
 37185 27379      -    -    -      519.65109  177.81832  65.8%     - 14265s
 37857 27713      -    -    -      519.65109  177.81832  65.8%     - 14683s
 38211 28423      -    -    -      519.65109  177.81832  65.8%     - 14751s
 38923 29048      -    -    -      519.65109  177.81832  65.8%     - 14853s
 39557 29613      -    -    -      519.65109  177.81832  65.8%     - 15058s
 40124 30333      -    -    -      519.65109  177.81832  65.8%     - 15127s
 40846 31004      -    -    -      519.65109  177.81832  65.8%     - 15319s
 41525 31731      -    -    -      519.65109  177.81832  65.8%     - 15527s
 42276 32409      -    -    -      519.65109  177.81832  65.8%     - 15612s
 42959 33071      -    -    -      519.65109  177.81832  65.8%     - 15694s
 43629 33697      -    -    -      519.65109  177.81832  65.8%     - 15777s
 44257 34306      -    -    -      519.65109  177.81832  65.8%     - 15851s
 44882 34980      -    -    -      519.65109  177.81832  65.8%     - 15911s
 45558 35633      -    -    -      519.65109  177.81832  65.8%     - 15992s
 46215 36275      -    -    -      519.65109  177.81832  65.8%     - 16062s
 46871 36921      -    -    -      519.65109  177.81832  65.8%     - 16136s
 47519 37531      -    -    -      519.65109  177.81832  65.8%     - 16220s
 48143 38172      -    -    -      519.65109  177.81832  65.8%     - 16299s
 48704 38172      -    -    -      519.65109  177.81832  65.8%     - 16300s
 48788 38772      -    -    -      519.65109  177.81832  65.8%     - 16384s
 49392 39413      -    -    -      519.65109  177.81832  65.8%     - 16464s
 50033 40062      -    -    -      519.65109  177.81832  65.8%     - 16553s
 50684 40271      -    -    -      519.65109  177.81832  65.8%     - 16572s

Explored 50899 nodes (13867658 simplex iterations) in 16578.98 seconds (22947.40 work units)
Thread count was 16 (of 96 available processors)

Solution count 10: 519.651 638.166 639.681 ... 3150.71 

Solve interrupted
Warning: max constraint violation (2.1343e-06) exceeds tolerance
Warning: max bound violation (3.7929e-06) exceeds tolerance
Best objective 5.196510948439e+02, best bound 1.778183206047e+02, gap 65.7812%
